language Essence 1.3

letting A be 2
letting T be 98
letting X be 3
letting Y be 3
letting Z be 5
letting building be [[0, 0, 0; int(0..2)], [0, 3, 0; int(0..2)], [0, 0, 0; int(0..2)]; int(0..2)]
$ Visualisation for building
$ 0 0 0
$ 0 3 0
$ 0 0 0

